50
    47    11    15    39    37    78    47    86    10    74    27    31    81     2    50    18    52    76    53    61    17    30    12    37    61    11    45    88    58    83    10    23    75    24     4    17    68    29    67     9    83     9    80     6    59    89    61    78    23    10
     1     8     4     8     9     4     9     8     6     8     3     9     3     3     4    10    10     8    10     5     4     3     3     3     7     9     5     8    10     5     2     7     1    10     1     5     5     4     4     7     5     5     1     8     9     2     7     3     4     2
  1495  1547  1398  1226  1674  1211  1129  1173  1013  1156  1388  1521  1573   904  1062  1167  1173  1179  1228  1381  1619   958  1514   924   964  1014  1209  1088   868   970  1656  1681  1451  1108  1324   891   886  1158  1657  1625  1464  1235  1273  1016  1429  1497   958  1077  1043  1356
